unknown
(model
; cardinality of BoundSet is 2
(declare-sort BoundSet 0)
; rep: @uc_BoundSet_0
; rep: @uc_BoundSet_1
(declare-sort UnboundSet 0)
(define-fun IsBorn ((BOUND_VARIABLE_381 BoundSet)) Bool true)
(define-fun CreatedCellphones ((BOUND_VARIABLE_381 BoundSet)) Bool true)
(define-fun WasNotInventedBefore ((BOUND_VARIABLE_393 BoundSet) (BOUND_VARIABLE_394 BoundSet)) Bool false)
)
sat
(model
; cardinality of BoundSet is 1
(declare-sort BoundSet 0)
; rep: @uc_BoundSet_0
(declare-sort UnboundSet 0)
(define-fun IsBorn ((BOUND_VARIABLE_415 BoundSet)) Bool true)
(define-fun CreatedCellphones ((BOUND_VARIABLE_415 BoundSet)) Bool true)
(define-fun WasNotInventedBefore ((BOUND_VARIABLE_423 BoundSet) (BOUND_VARIABLE_424 BoundSet)) Bool false)
)
